
Value of objective function: 30.00000000

Actual values of the variables:
C1                              1
C2                              0
C3                              0
C4                              0
C5                              0
C6                              1
C7                              0
C8                              0
C9                              0
C10                             1
C11                             0
C12                             0
C13                             1
C14                             0
C15                             0
C16                             0
C17                             0
C18                             0
C19                             0
C20                             0
C21                             0
C22                             0
C23                             0
C24                             0
C25                             0
C26                             0
C27                             0
C28                             0
C29                             0
C30                             0
C31                             0
C32                             0

Actual values of the constraints:
R1                              0
R2                              0
R3                              0
R4                              0
R5                              0
R6                              0
R7                              0
R8                              0
R9                              0
R10                             0
R11                             0
R12                             0
R13                             0
R14                             0
R15                             0
R16                             0
R17                             0
R18                             0
R19                             0
R20                             0
R21                             0
R22                             0
R23                             0
R24                             0
R25                             0
R26                             0
R27                             0
R28                             0
R29                             0
R30                             0
R31                             0
R32                             0
R33                             0
R34                             0
R35                             0
R36                             0
R37                             1
R38                             1
R39                             1
R40                             1
R41                             1
R42                             1
R43                             0
R44                             0
R45                             1
R46                             1
R47                             0
R48                             0
R49                             1
R50                             1
R51                             0
R52                             0
R53                             1
R54                             1
R55                             0
R56                             0
R57                             1
R58                             0
R59                             0
R60                             0
R61                             1
R62                             1
R63                             0
R64                             0
R65                             1
R66                             1
R67                             0
R68                             0
R69                             1
R70                             0
R71                             0
R72                             0
